predicate fzn_all_different_int(array [int] of var int: x);
predicate array_var_int_element_offset(var int: idx,array [int] of var int: x,var int: c,int: offset);
var 0..4: X_INTRODUCED_18_;
var 0..4: X_INTRODUCED_19_;
var 0..4: X_INTRODUCED_20_;
var 0..4: X_INTRODUCED_21_;
var 0..4: X_INTRODUCED_22_;
var 0..4: X_INTRODUCED_24_;
var 0..4: X_INTRODUCED_25_;
var 0..4: X_INTRODUCED_26_;
var 0..4: X_INTRODUCED_27_;
var 0..4: X_INTRODUCED_28_;
var 0..4: X_INTRODUCED_30_;
var 0..4: X_INTRODUCED_31_;
var 0..4: X_INTRODUCED_32_;
var 0..4: X_INTRODUCED_33_;
var 0..4: X_INTRODUCED_34_;
var 1..4: X_INTRODUCED_36_;
var 0..4: X_INTRODUCED_37_;
var 0..4: X_INTRODUCED_38_;
var 0..4: X_INTRODUCED_39_;
var 0..4: X_INTRODUCED_40_;
var 0..4: X_INTRODUCED_56_ ::var_is_introduced :: is_defined_var;
var 0..4: X_INTRODUCED_59_ ::var_is_introduced :: is_defined_var;
var 0..4: X_INTRODUCED_62_ ::var_is_introduced :: is_defined_var;
var 0..4: X_INTRODUCED_65_ ::var_is_introduced :: is_defined_var;
var 0..4: X_INTRODUCED_68_ ::var_is_introduced :: is_defined_var;
var 0..4: X_INTRODUCED_71_ ::var_is_introduced :: is_defined_var;
var 0..4: X_INTRODUCED_73_ ::var_is_introduced :: is_defined_var;
var 0..4: X_INTRODUCED_75_ ::var_is_introduced :: is_defined_var;
var 0..4: X_INTRODUCED_77_ ::var_is_introduced :: is_defined_var;
var 0..4: X_INTRODUCED_79_ ::var_is_introduced :: is_defined_var;
var 0..4: X_INTRODUCED_82_ ::var_is_introduced :: is_defined_var;
var 0..4: X_INTRODUCED_84_ ::var_is_introduced :: is_defined_var;
var 0..4: X_INTRODUCED_86_ ::var_is_introduced :: is_defined_var;
var 0..4: X_INTRODUCED_88_ ::var_is_introduced :: is_defined_var;
var 0..4: X_INTRODUCED_90_ ::var_is_introduced :: is_defined_var;
var 0..4: X_INTRODUCED_93_ ::var_is_introduced :: is_defined_var;
var 0..4: X_INTRODUCED_95_ ::var_is_introduced :: is_defined_var;
var 0..4: X_INTRODUCED_97_ ::var_is_introduced :: is_defined_var;
var 0..4: X_INTRODUCED_99_ ::var_is_introduced :: is_defined_var;
var 0..4: X_INTRODUCED_101_ ::var_is_introduced :: is_defined_var;
var 0..4: X_INTRODUCED_104_ ::var_is_introduced :: is_defined_var;
var 0..4: X_INTRODUCED_106_ ::var_is_introduced :: is_defined_var;
var 0..4: X_INTRODUCED_108_ ::var_is_introduced :: is_defined_var;
var 0..4: X_INTRODUCED_110_ ::var_is_introduced :: is_defined_var;
var 0..4: X_INTRODUCED_112_ ::var_is_introduced :: is_defined_var;
array [1..25] of var int: X_INTRODUCED_16_:: output_array([1..25]) = [0,X_INTRODUCED_18_,X_INTRODUCED_19_,X_INTRODUCED_20_,X_INTRODUCED_21_,X_INTRODUCED_22_,1,X_INTRODUCED_24_,X_INTRODUCED_25_,X_INTRODUCED_26_,X_INTRODUCED_27_,X_INTRODUCED_28_,2,X_INTRODUCED_30_,X_INTRODUCED_31_,X_INTRODUCED_32_,X_INTRODUCED_33_,X_INTRODUCED_34_,3,X_INTRODUCED_36_,X_INTRODUCED_37_,X_INTRODUCED_38_,X_INTRODUCED_39_,X_INTRODUCED_40_,4];
array [1..25] of var int: X_INTRODUCED_42_ ::var_is_introduced  = [0,X_INTRODUCED_18_,X_INTRODUCED_19_,X_INTRODUCED_20_,X_INTRODUCED_21_,X_INTRODUCED_22_,1,X_INTRODUCED_24_,X_INTRODUCED_25_,X_INTRODUCED_26_,X_INTRODUCED_27_,X_INTRODUCED_28_,2,X_INTRODUCED_30_,X_INTRODUCED_31_,X_INTRODUCED_32_,X_INTRODUCED_33_,X_INTRODUCED_34_,3,X_INTRODUCED_36_,X_INTRODUCED_37_,X_INTRODUCED_38_,X_INTRODUCED_39_,X_INTRODUCED_40_,4];
array [1..5] of var int: X_INTRODUCED_43_ ::var_is_introduced  = [0,X_INTRODUCED_18_,X_INTRODUCED_19_,X_INTRODUCED_20_,X_INTRODUCED_21_];
array [1..5] of var int: X_INTRODUCED_44_ ::var_is_introduced  = [X_INTRODUCED_22_,1,X_INTRODUCED_24_,X_INTRODUCED_25_,X_INTRODUCED_26_];
array [1..5] of var int: X_INTRODUCED_45_ ::var_is_introduced  = [X_INTRODUCED_27_,X_INTRODUCED_28_,2,X_INTRODUCED_30_,X_INTRODUCED_31_];
array [1..5] of var int: X_INTRODUCED_46_ ::var_is_introduced  = [X_INTRODUCED_32_,X_INTRODUCED_33_,X_INTRODUCED_34_,3,X_INTRODUCED_36_];
array [1..5] of var int: X_INTRODUCED_47_ ::var_is_introduced  = [X_INTRODUCED_37_,X_INTRODUCED_38_,X_INTRODUCED_39_,X_INTRODUCED_40_,4];
array [1..5] of var int: X_INTRODUCED_48_ ::var_is_introduced  = [0,X_INTRODUCED_22_,X_INTRODUCED_27_,X_INTRODUCED_32_,X_INTRODUCED_37_];
array [1..5] of var int: X_INTRODUCED_49_ ::var_is_introduced  = [X_INTRODUCED_18_,1,X_INTRODUCED_28_,X_INTRODUCED_33_,X_INTRODUCED_38_];
array [1..5] of var int: X_INTRODUCED_50_ ::var_is_introduced  = [X_INTRODUCED_19_,X_INTRODUCED_24_,2,X_INTRODUCED_34_,X_INTRODUCED_39_];
array [1..5] of var int: X_INTRODUCED_51_ ::var_is_introduced  = [X_INTRODUCED_20_,X_INTRODUCED_25_,X_INTRODUCED_30_,3,X_INTRODUCED_40_];
array [1..5] of var int: X_INTRODUCED_52_ ::var_is_introduced  = [X_INTRODUCED_21_,X_INTRODUCED_26_,X_INTRODUCED_31_,X_INTRODUCED_36_,4];
array [1..5] of var int: X_INTRODUCED_53_ ::var_is_introduced  = [0,X_INTRODUCED_18_,X_INTRODUCED_19_,X_INTRODUCED_20_,X_INTRODUCED_21_];
array [1..5] of var int: X_INTRODUCED_55_ ::var_is_introduced  = [0,X_INTRODUCED_22_,X_INTRODUCED_27_,X_INTRODUCED_32_,X_INTRODUCED_37_];
array [1..5] of var int: X_INTRODUCED_58_ ::var_is_introduced  = [X_INTRODUCED_18_,1,X_INTRODUCED_28_,X_INTRODUCED_33_,X_INTRODUCED_38_];
array [1..5] of var int: X_INTRODUCED_61_ ::var_is_introduced  = [X_INTRODUCED_19_,X_INTRODUCED_24_,2,X_INTRODUCED_34_,X_INTRODUCED_39_];
array [1..5] of var int: X_INTRODUCED_64_ ::var_is_introduced  = [X_INTRODUCED_20_,X_INTRODUCED_25_,X_INTRODUCED_30_,3,X_INTRODUCED_40_];
array [1..5] of var int: X_INTRODUCED_67_ ::var_is_introduced  = [X_INTRODUCED_21_,X_INTRODUCED_26_,X_INTRODUCED_31_,X_INTRODUCED_36_,4];
array [1..5] of var int: X_INTRODUCED_69_ ::var_is_introduced  = [X_INTRODUCED_22_,1,X_INTRODUCED_24_,X_INTRODUCED_25_,X_INTRODUCED_26_];
array [1..5] of var int: X_INTRODUCED_80_ ::var_is_introduced  = [X_INTRODUCED_27_,X_INTRODUCED_28_,2,X_INTRODUCED_30_,X_INTRODUCED_31_];
array [1..5] of var int: X_INTRODUCED_91_ ::var_is_introduced  = [X_INTRODUCED_32_,X_INTRODUCED_33_,X_INTRODUCED_34_,3,X_INTRODUCED_36_];
array [1..5] of var int: X_INTRODUCED_102_ ::var_is_introduced  = [X_INTRODUCED_37_,X_INTRODUCED_38_,X_INTRODUCED_39_,X_INTRODUCED_40_,4];
constraint fzn_all_different_int(X_INTRODUCED_43_);
constraint fzn_all_different_int(X_INTRODUCED_44_);
constraint fzn_all_different_int(X_INTRODUCED_45_);
constraint fzn_all_different_int(X_INTRODUCED_46_);
constraint fzn_all_different_int(X_INTRODUCED_47_);
constraint fzn_all_different_int(X_INTRODUCED_48_);
constraint fzn_all_different_int(X_INTRODUCED_49_);
constraint fzn_all_different_int(X_INTRODUCED_50_);
constraint fzn_all_different_int(X_INTRODUCED_51_);
constraint fzn_all_different_int(X_INTRODUCED_52_);
constraint array_var_int_element_offset(0,X_INTRODUCED_53_,X_INTRODUCED_56_,0);
constraint array_var_int_element_offset(0,X_INTRODUCED_55_,X_INTRODUCED_56_,0);
constraint array_var_int_element_offset(X_INTRODUCED_22_,X_INTRODUCED_53_,X_INTRODUCED_59_,0);
constraint array_var_int_element_offset(X_INTRODUCED_22_,X_INTRODUCED_58_,X_INTRODUCED_59_,0);
constraint array_var_int_element_offset(X_INTRODUCED_27_,X_INTRODUCED_53_,X_INTRODUCED_62_,0);
constraint array_var_int_element_offset(X_INTRODUCED_27_,X_INTRODUCED_61_,X_INTRODUCED_62_,0);
constraint array_var_int_element_offset(X_INTRODUCED_32_,X_INTRODUCED_53_,X_INTRODUCED_65_,0);
constraint array_var_int_element_offset(X_INTRODUCED_32_,X_INTRODUCED_64_,X_INTRODUCED_65_,0);
constraint array_var_int_element_offset(X_INTRODUCED_37_,X_INTRODUCED_53_,X_INTRODUCED_68_,0);
constraint array_var_int_element_offset(X_INTRODUCED_37_,X_INTRODUCED_67_,X_INTRODUCED_68_,0);
constraint array_var_int_element_offset(X_INTRODUCED_18_,X_INTRODUCED_69_,X_INTRODUCED_71_,0);
constraint array_var_int_element_offset(X_INTRODUCED_18_,X_INTRODUCED_55_,X_INTRODUCED_71_,0);
constraint array_var_int_element_offset(1,X_INTRODUCED_69_,X_INTRODUCED_73_,0);
constraint array_var_int_element_offset(1,X_INTRODUCED_58_,X_INTRODUCED_73_,0);
constraint array_var_int_element_offset(X_INTRODUCED_28_,X_INTRODUCED_69_,X_INTRODUCED_75_,0);
constraint array_var_int_element_offset(X_INTRODUCED_28_,X_INTRODUCED_61_,X_INTRODUCED_75_,0);
constraint array_var_int_element_offset(X_INTRODUCED_33_,X_INTRODUCED_69_,X_INTRODUCED_77_,0);
constraint array_var_int_element_offset(X_INTRODUCED_33_,X_INTRODUCED_64_,X_INTRODUCED_77_,0);
constraint array_var_int_element_offset(X_INTRODUCED_38_,X_INTRODUCED_69_,X_INTRODUCED_79_,0);
constraint array_var_int_element_offset(X_INTRODUCED_38_,X_INTRODUCED_67_,X_INTRODUCED_79_,0);
constraint array_var_int_element_offset(X_INTRODUCED_19_,X_INTRODUCED_80_,X_INTRODUCED_82_,0);
constraint array_var_int_element_offset(X_INTRODUCED_19_,X_INTRODUCED_55_,X_INTRODUCED_82_,0);
constraint array_var_int_element_offset(X_INTRODUCED_24_,X_INTRODUCED_80_,X_INTRODUCED_84_,0);
constraint array_var_int_element_offset(X_INTRODUCED_24_,X_INTRODUCED_58_,X_INTRODUCED_84_,0);
constraint array_var_int_element_offset(2,X_INTRODUCED_80_,X_INTRODUCED_86_,0);
constraint array_var_int_element_offset(2,X_INTRODUCED_61_,X_INTRODUCED_86_,0);
constraint array_var_int_element_offset(X_INTRODUCED_34_,X_INTRODUCED_80_,X_INTRODUCED_88_,0);
constraint array_var_int_element_offset(X_INTRODUCED_34_,X_INTRODUCED_64_,X_INTRODUCED_88_,0);
constraint array_var_int_element_offset(X_INTRODUCED_39_,X_INTRODUCED_80_,X_INTRODUCED_90_,0);
constraint array_var_int_element_offset(X_INTRODUCED_39_,X_INTRODUCED_67_,X_INTRODUCED_90_,0);
constraint array_var_int_element_offset(X_INTRODUCED_20_,X_INTRODUCED_91_,X_INTRODUCED_93_,0);
constraint array_var_int_element_offset(X_INTRODUCED_20_,X_INTRODUCED_55_,X_INTRODUCED_93_,0);
constraint array_var_int_element_offset(X_INTRODUCED_25_,X_INTRODUCED_91_,X_INTRODUCED_95_,0);
constraint array_var_int_element_offset(X_INTRODUCED_25_,X_INTRODUCED_58_,X_INTRODUCED_95_,0);
constraint array_var_int_element_offset(X_INTRODUCED_30_,X_INTRODUCED_91_,X_INTRODUCED_97_,0);
constraint array_var_int_element_offset(X_INTRODUCED_30_,X_INTRODUCED_61_,X_INTRODUCED_97_,0);
constraint array_var_int_element_offset(3,X_INTRODUCED_91_,X_INTRODUCED_99_,0);
constraint array_var_int_element_offset(3,X_INTRODUCED_64_,X_INTRODUCED_99_,0);
constraint array_var_int_element_offset(X_INTRODUCED_40_,X_INTRODUCED_91_,X_INTRODUCED_101_,0);
constraint array_var_int_element_offset(X_INTRODUCED_40_,X_INTRODUCED_67_,X_INTRODUCED_101_,0);
constraint array_var_int_element_offset(X_INTRODUCED_21_,X_INTRODUCED_102_,X_INTRODUCED_104_,0);
constraint array_var_int_element_offset(X_INTRODUCED_21_,X_INTRODUCED_55_,X_INTRODUCED_104_,0);
constraint array_var_int_element_offset(X_INTRODUCED_26_,X_INTRODUCED_102_,X_INTRODUCED_106_,0);
constraint array_var_int_element_offset(X_INTRODUCED_26_,X_INTRODUCED_58_,X_INTRODUCED_106_,0);
constraint array_var_int_element_offset(X_INTRODUCED_31_,X_INTRODUCED_102_,X_INTRODUCED_108_,0);
constraint array_var_int_element_offset(X_INTRODUCED_31_,X_INTRODUCED_61_,X_INTRODUCED_108_,0);
constraint array_var_int_element_offset(X_INTRODUCED_36_,X_INTRODUCED_102_,X_INTRODUCED_110_,0);
constraint array_var_int_element_offset(X_INTRODUCED_36_,X_INTRODUCED_64_,X_INTRODUCED_110_,0);
constraint array_var_int_element_offset(4,X_INTRODUCED_102_,X_INTRODUCED_112_,0);
constraint array_var_int_element_offset(4,X_INTRODUCED_67_,X_INTRODUCED_112_,0);
solve :: int_search(X_INTRODUCED_42_,first_fail,indomain,complete) satisfy;
